min: c;

c = 4.69793669328358 * u3_t10_h0 + 3.98872218475065 * u3_t10_h1 + 3.14569371973946 * u3_t4_h2 + 3.14569371973946 * u3_t10_h2 + 3.0905850337818 * u3_t4_h3 + 3.0905850337818 * u3_t10_h3 + 3.58775421349891 * u3_t4_h4 + 3.58775421349891 * u3_t10_h4 + 3.26764409765886 * u3_t4_h5 + 3.26764409765886 * u3_t10_h5 + 3.6686204320089 * u3_t4_h6 + 3.6686204320089 * u3_t10_h6 + 4.40567131695634 * u3_t4_h7 + 4.40567131695634 * u3_t9_h7 + 4.40567131695634 * u3_t10_h7 + 5.39266143812491 * u3_t4_h8 + 5.39266143812491 * u3_t9_h8 + 4.74161970992062 * u3_t4_h9 + 4.74161970992062 * u3_t9_h9 + 5.49425587845487 * u3_t4_h10 + 5.49425587845487 * u3_t6_h10 + 5.49425587845487 * u3_t9_h10 + 3.41782578563348 * u3_t3_h11 + 3.41782578563348 * u3_t4_h11 + 3.41782578563348 * u3_t6_h11 + 3.41782578563348 * u3_t9_h11 + 5.86548264364935 * u3_t3_h12 + 5.86548264364935 * u3_t4_h12 + 5.86548264364935 * u3_t6_h12 + 5.86548264364935 * u3_t9_h12 + 4.81122272394093 * u3_t3_h13 + 4.81122272394093 * u3_t4_h13 + 4.81122272394093 * u3_t5_h13 + 4.81122272394093 * u3_t6_h13 + 4.81122272394093 * u3_t9_h13 + 5.12437306390243 * u3_t3_h14 + 5.12437306390243 * u3_t4_h14 + 5.12437306390243 * u3_t5_h14 + 5.12437306390243 * u3_t6_h14 + 5.12437306390243 * u3_t9_h14 + 6.43675271257728 * u3_t2_h15 + 6.43675271257728 * u3_t3_h15 + 6.43675271257728 * u3_t4_h15 + 6.43675271257728 * u3_t5_h15 + 6.43675271257728 * u3_t6_h15 + 6.43675271257728 * u3_t9_h15 + 6.26706260249511 * u3_t2_h16 + 6.26706260249511 * u3_t4_h16 + 6.26706260249511 * u3_t5_h16 + 6.26706260249511 * u3_t6_h16 + 6.26706260249511 * u3_t9_h16 + 5.98106157018814 * u3_t2_h17 + 5.98106157018814 * u3_t4_h17 + 5.98106157018814 * u3_t6_h17 + 5.98106157018814 * u3_t9_h17 + 6.54889709007324 * u3_t2_h18 + 6.54889709007324 * u3_t6_h18 + 6.54889709007324 * u3_t9_h18 + 5.853539869247 * u3_t2_h19 + 5.853539869247 * u3_t9_h19 + 5.77848005951775 * u3_t1_h20 + 5.77848005951775 * u3_t2_h20 + 5.77848005951775 * u3_t8_h20 + 5.77848005951775 * u3_t9_h20 + 4.90823831065995 * u3_t1_h21 + 4.90823831065995 * u3_t2_h21 + 4.90823831065995 * u3_t7_h21 + 4.90823831065995 * u3_t8_h21 + 4.90823831065995 * u3_t9_h21 + 5.81834016439987 * u3_t1_h22 + 5.81834016439987 * u3_t7_h22 + 5.81834016439987 * u3_t8_h22 + 5.91006639980769 * u3_t1_h23 + 5.91006639980769 * u3_t7_h23 + 5.91006639980769 * u3_t8_h23;
0 <= u3_t1_h20 <= 1;
0 <= u3_t1_h21 <= 1;
0 <= u3_t1_h22 <= 1;
0 <= u3_t1_h23 <= 1;
u3_t1_h20 + u3_t1_h21 + u3_t1_h22 + u3_t1_h23 = 2;
0 <= u3_t2_h15 <= 1;
0 <= u3_t2_h16 <= 1;
0 <= u3_t2_h17 <= 1;
0 <= u3_t2_h18 <= 1;
0 <= u3_t2_h19 <= 1;
0 <= u3_t2_h20 <= 1;
0 <= u3_t2_h21 <= 1;
u3_t2_h15 + u3_t2_h16 + u3_t2_h17 + u3_t2_h18 + u3_t2_h19 + u3_t2_h20 + u3_t2_h21 = 3;
0 <= u3_t3_h11 <= 1;
0 <= u3_t3_h12 <= 1;
0 <= u3_t3_h13 <= 1;
0 <= u3_t3_h14 <= 1;
0 <= u3_t3_h15 <= 1;
u3_t3_h11 + u3_t3_h12 + u3_t3_h13 + u3_t3_h14 + u3_t3_h15 = 2;
0 <= u3_t4_h2 <= 1;
0 <= u3_t4_h3 <= 1;
0 <= u3_t4_h4 <= 1;
0 <= u3_t4_h5 <= 1;
0 <= u3_t4_h6 <= 1;
0 <= u3_t4_h7 <= 1;
0 <= u3_t4_h8 <= 1;
0 <= u3_t4_h9 <= 1;
0 <= u3_t4_h10 <= 1;
0 <= u3_t4_h11 <= 1;
0 <= u3_t4_h12 <= 1;
0 <= u3_t4_h13 <= 1;
0 <= u3_t4_h14 <= 1;
0 <= u3_t4_h15 <= 1;
0 <= u3_t4_h16 <= 1;
0 <= u3_t4_h17 <= 1;
u3_t4_h2 + u3_t4_h3 + u3_t4_h4 + u3_t4_h5 + u3_t4_h6 + u3_t4_h7 + u3_t4_h8 + u3_t4_h9 + u3_t4_h10 + u3_t4_h11 + u3_t4_h12 + u3_t4_h13 + u3_t4_h14 + u3_t4_h15 + u3_t4_h16 + u3_t4_h17 = 3;
0 <= u3_t5_h13 <= 1;
0 <= u3_t5_h14 <= 1;
0 <= u3_t5_h15 <= 1;
0 <= u3_t5_h16 <= 1;
u3_t5_h13 + u3_t5_h14 + u3_t5_h15 + u3_t5_h16 = 2;
0 <= u3_t6_h10 <= 1;
0 <= u3_t6_h11 <= 1;
0 <= u3_t6_h12 <= 1;
0 <= u3_t6_h13 <= 1;
0 <= u3_t6_h14 <= 1;
0 <= u3_t6_h15 <= 1;
0 <= u3_t6_h16 <= 1;
0 <= u3_t6_h17 <= 1;
0 <= u3_t6_h18 <= 1;
u3_t6_h10 + u3_t6_h11 + u3_t6_h12 + u3_t6_h13 + u3_t6_h14 + u3_t6_h15 + u3_t6_h16 + u3_t6_h17 + u3_t6_h18 = 2;
0 <= u3_t7_h21 <= 1;
0 <= u3_t7_h22 <= 1;
0 <= u3_t7_h23 <= 1;
u3_t7_h21 + u3_t7_h22 + u3_t7_h23 = 2;
0 <= u3_t8_h20 <= 1;
0 <= u3_t8_h21 <= 1;
0 <= u3_t8_h22 <= 1;
0 <= u3_t8_h23 <= 1;
u3_t8_h20 + u3_t8_h21 + u3_t8_h22 + u3_t8_h23 = 1;
0 <= u3_t9_h7 <= 1;
0 <= u3_t9_h8 <= 1;
0 <= u3_t9_h9 <= 1;
0 <= u3_t9_h10 <= 1;
0 <= u3_t9_h11 <= 1;
0 <= u3_t9_h12 <= 1;
0 <= u3_t9_h13 <= 1;
0 <= u3_t9_h14 <= 1;
0 <= u3_t9_h15 <= 1;
0 <= u3_t9_h16 <= 1;
0 <= u3_t9_h17 <= 1;
0 <= u3_t9_h18 <= 1;
0 <= u3_t9_h19 <= 1;
0 <= u3_t9_h20 <= 1;
0 <= u3_t9_h21 <= 1;
u3_t9_h7 + u3_t9_h8 + u3_t9_h9 + u3_t9_h10 + u3_t9_h11 + u3_t9_h12 + u3_t9_h13 + u3_t9_h14 + u3_t9_h15 + u3_t9_h16 + u3_t9_h17 + u3_t9_h18 + u3_t9_h19 + u3_t9_h20 + u3_t9_h21 = 2;
0 <= u3_t10_h0 <= 1;
0 <= u3_t10_h1 <= 1;
0 <= u3_t10_h2 <= 1;
0 <= u3_t10_h3 <= 1;
0 <= u3_t10_h4 <= 1;
0 <= u3_t10_h5 <= 1;
0 <= u3_t10_h6 <= 1;
0 <= u3_t10_h7 <= 1;
u3_t10_h0 + u3_t10_h1 + u3_t10_h2 + u3_t10_h3 + u3_t10_h4 + u3_t10_h5 + u3_t10_h6 + u3_t10_h7 = 3;
